95.5 98.5 111.5 104.5 118.5 125.5 122.5 120.5 136.5 141.5 126.5 133.5 144.5 122.5 133.5 131.5 148.5 150.5 134.5 134.5 139.5 154.5 175.5 154.5 150.5 162.5 155.5 166.5 168.5 180.5 179.5 193.5 198.5 182.5 192.5 192.5 196.5 204.5 198.5 206.5 210.5 204.5 211.5 202.5 197.5 208.5 215.5 221.5 218.5 225.5 211.5